90 4005
1 2 169
1 3 238
1 4 121
1 5 69
1 6 123
1 7 260
1 8 158
1 9 116
1 10 160
1 11 65
1 12 74
1 13 206
1 14 93
1 15 205
1 16 101
1 17 114
1 18 236
1 19 8
1 20 165
1 21 233
1 22 228
1 23 145
1 24 180
1 25 127
1 26 14
1 27 37
1 28 223
1 29 239
1 30 231
1 31 15
1 32 238
1 33 148
1 34 185
1 35 146
1 36 193
1 37 107
1 38 119
1 39 251
1 40 262
1 41 145
1 42 268
1 43 195
1 44 24
1 45 62
1 46 23
1 47 4
1 48 130
1 49 41
1 50 239
1 51 91
1 52 227
1 53 243
1 54 150
1 55 192
1 56 27
1 57 124
1 58 229
1 59 86
1 60 109
1 61 131
1 62 110
1 63 226
1 64 158
1 65 138
1 66 100
1 67 162
1 68 143
1 69 177
1 70 197
1 71 65
1 72 185
1 73 116
1 74 171
1 75 49
1 76 50
1 77 121
1 78 248
1 79 80
1 80 198
1 81 63
1 82 122
1 83 81
1 84 63
1 85 23
1 86 89
1 87 82
1 88 66
1 89 107
1 90 22
2 3 121
2 4 120
2 5 94
2 6 166
2 7 248
2 8 123
2 9 144
2 10 60
2 11 65
2 12 42
2 13 258
2 14 203
2 15 31
2 16 182
2 17 269
2 18 193
2 19 169
2 20 148
2 21 227
2 22 188
2 23 187
2 24 186
2 25 152
2 26 44
2 27 82
2 28 6
2 29 24
2 30 60
2 31 104
2 32 34
2 33 201
2 34 98
2 35 117
2 36 203
2 37 85
2 38 211
2 39 111
2 40 47
2 41 233
2 42 262
2 43 16
2 44 193
2 45 182
2 46 261
2 47 182
2 48 45
2 49 184
2 50 218
2 51 176
2 52 209
2 53 42
2 54 269
2 55 118
2 56 100
2 57 72
2 58 161
2 59 28
2 60 99
2 61 183
2 62 205
2 63 68
2 64 206
2 65 95
2 66 115
2 67 265
2 68 73
2 69 37
2 70 207
2 71 144
2 72 226
2 73 36
2 74 39
2 75 151
2 76 248
2 77 17
2 78 61
2 79 235
2 80 40
2 81 99
2 82 221
2 83 269
2 84 254
2 85 155
2 86 152
2 87 161
2 88 254
2 89 254
2 90 197
3 4 266
3 5 77
3 6 21
3 7 109
3 8 178
3 9 141
3 10 120
3 11 44
3 12 269
3 13 96
3 14 255
3 15 181
3 16 48
3 17 260
3 18 154
3 19 243
3 20 33
3 21 209
3 22 219
3 23 16
3 24 58
3 25 43
3 26 186
3 27 56
3 28 144
3 29 218
3 30 231
3 31 168
3 32 194
3 33 146
3 34 237
3 35 114
3 36 101
3 37 139
3 38 249
3 39 182
3 40 143
3 41 33
3 42 178
3 43 163
3 44 75
3 45 258
3 46 79
3 47 45
3 48 99
3 49 117
3 50 261
3 51 7
3 52 12
3 53 218
3 54 203
3 55 259
3 56 143
3 57 183
3 58 102
3 59 122
3 60 146
3 61 184
3 62 67
3 63 99
3 64 63
3 65 27
3 66 148
3 67 134
3 68 191
3 69 29
3 70 95
3 71 218
3 72 59
3 73 212
3 74 177
3 75 166
3 76 179
3 77 80
3 78 165
3 79 67
3 80 8
3 81 117
3 82 220
3 83 10
3 84 156
3 85 125
3 86 71
3 87 78
3 88 22
3 89 207
3 90 129
4 5 90
4 6 167
4 7 62
4 8 31
4 9 82
4 10 172
4 11 249
4 12 88
4 13 86
4 14 212
4 15 179
4 16 160
4 17 67
4 18 124
4 19 266
4 20 9
4 21 52
4 22 126
4 23 212
4 24 215
4 25 51
4 26 163
4 27 252
4 28 56
4 29 72
4 30 260
4 31 249
4 32 70
4 33 130
4 34 112
4 35 98
4 36 214
4 37 85
4 38 263
4 39 241
4 40 87
4 41 75
4 42 38
4 43 200
4 44 111
4 45 180
4 46 228
4 47 49
4 48 248
4 49 174
4 50 102
4 51 260
4 52 111
4 53 173
4 54 98
4 55 124
4 56 247
4 57 228
4 58 60
4 59 218
4 60 175
4 61 85
4 62 219
4 63 155
4 64 63
4 65 27
4 66 156
4 67 76
4 68 193
4 69 206
4 70 226
4 71 70
4 72 246
4 73 5
4 74 106
4 75 22
4 76 239
4 77 243
4 78 91
4 79 174
4 80 128
4 81 66
4 82 75
4 83 248
4 84 257
4 85 138
4 86 213
4 87 214
4 88 132
4 89 240
4 90 163
5 6 50
5 7 138
5 8 147
5 9 153
5 10 202
5 11 157
5 12 98
5 13 36
5 14 11
5 15 266
5 16 74
5 17 189
5 18 196
5 19 169
5 20 230
5 21 44
5 22 25
5 23 88
5 24 40
5 25 198
5 26 176
5 27 83
5 28 219
5 29 197
5 30 144
5 31 0
5 32 184
5 33 70
5 34 69
5 35 256
5 36 240
5 37 244
5 38 254
5 39 137
5 40 44
5 41 232
5 42 105
5 43 74
5 44 32
5 45 238
5 46 122
5 47 155
5 48 17
5 49 195
5 50 0
5 51 239
5 52 110
5 53 199
5 54 92
5 55 35
5 56 211
5 57 74
5 58 259
5 59 149
5 60 253
5 61 168
5 62 136
5 63 53
5 64 179
5 65 189
5 66 183
5 67 180
5 68 268
5 69 133
5 70 31
5 71 226
5 72 162
5 73 200
5 74 224
5 75 47
5 76 60
5 77 48
5 78 218
5 79 172
5 80 249
5 81 84
5 82 5
5 83 135
5 84 41
5 85 58
5 86 182
5 87 143
5 88 95
5 89 257
5 90 264
6 7 254
6 8 229
6 9 154
6 10 77
6 11 269
6 12 31
6 13 142
6 14 139
6 15 228
6 16 234
6 17 27
6 18 163
6 19 91
6 20 134
6 21 117
6 22 266
6 23 229
6 24 152
6 25 224
6 26 98
6 27 205
6 28 142
6 29 148
6 30 237
6 31 187
6 32 109
6 33 153
6 34 175
6 35 251
6 36 236
6 37 63
6 38 262
6 39 18
6 40 109
6 41 119
6 42 153
6 43 187
6 44 133
6 45 167
6 46 170
6 47 59
6 48 238
6 49 189
6 50 66
6 51 130
6 52 233
6 53 74
6 54 94
6 55 148
6 56 255
6 57 241
6 58 37
6 59 66
6 60 259
6 61 108
6 62 240
6 63 54
6 64 4
6 65 185
6 66 148
6 67 40
6 68 226
6 69 65
6 70 31
6 71 197
6 72 60
6 73 236
6 74 105
6 75 231
6 76 46
6 77 90
6 78 249
6 79 267
6 80 53
6 81 202
6 82 129
6 83 150
6 84 256
6 85 41
6 86 15
6 87 138
6 88 235
6 89 129
6 90 215
7 8 95
7 9 91
7 10 2
7 11 79
7 12 58
7 13 118
7 14 22
7 15 1
7 16 159
7 17 111
7 18 24
7 19 51
7 20 128
7 21 165
7 22 75
7 23 61
7 24 100
7 25 32
7 26 116
7 27 63
7 28 12
7 29 81
7 30 9
7 31 47
7 32 145
7 33 68
7 34 14
7 35 267
7 36 226
7 37 87
7 38 222
7 39 105
7 40 28
7 41 216
7 42 64
7 43 107
7 44 129
7 45 164
7 46 29
7 47 226
7 48 27
7 49 179
7 50 98
7 51 232
7 52 94
7 53 230
7 54 19
7 55 74
7 56 256
7 57 130
7 58 156
7 59 234
7 60 184
7 61 62
7 62 142
7 63 112
7 64 217
7 65 71
7 66 224
7 67 186
7 68 147
7 69 225
7 70 205
7 71 111
7 72 39
7 73 253
7 74 120
7 75 1
7 76 136
7 77 111
7 78 268
7 79 70
7 80 122
7 81 40
7 82 264
7 83 45
7 84 133
7 85 178
7 86 114
7 87 260
7 88 269
7 89 84
7 90 57
8 9 162
8 10 251
8 11 42
8 12 178
8 13 148
8 14 197
8 15 122
8 16 44
8 17 113
8 18 81
8 19 111
8 20 206
8 21 19
8 22 27
8 23 193
8 24 65
8 25 230
8 26 218
8 27 258
8 28 74
8 29 5
8 30 138
8 31 109
8 32 15
8 33 241
8 34 91
8 35 162
8 36 96
8 37 157
8 38 150
8 39 248
8 40 207
8 41 207
8 42 72
8 43 176
8 44 180
8 45 182
8 46 205
8 47 231
8 48 251
8 49 251
8 50 9
8 51 17
8 52 144
8 53 154
8 54 229
8 55 175
8 56 240
8 57 134
8 58 105
8 59 101
8 60 139
8 61 53
8 62 236
8 63 144
8 64 250
8 65 140
8 66 231
8 67 233
8 68 184
8 69 97
8 70 86
8 71 201
8 72 26
8 73 86
8 74 192
8 75 104
8 76 170
8 77 220
8 78 154
8 79 99
8 80 249
8 81 265
8 82 114
8 83 181
8 84 211
8 85 71
8 86 10
8 87 100
8 88 77
8 89 57
8 90 241
9 10 54
9 11 171
9 12 214
9 13 201
9 14 235
9 15 97
9 16 228
9 17 35
9 18 164
9 19 130
9 20 172
9 21 10
9 22 136
9 23 212
9 24 163
9 25 218
9 26 250
9 27 48
9 28 199
9 29 80
9 30 135
9 31 98
9 32 34
9 33 131
9 34 43
9 35 261
9 36 129
9 37 95
9 38 78
9 39 141
9 40 112
9 41 235
9 42 256
9 43 55
9 44 214
9 45 44
9 46 20
9 47 60
9 48 118
9 49 236
9 50 131
9 51 213
9 52 110
9 53 120
9 54 67
9 55 46
9 56 161
9 57 23
9 58 43
9 59 79
9 60 165
9 61 54
9 62 119
9 63 11
9 64 37
9 65 143
9 66 39
9 67 166
9 68 16
9 69 153
9 70 77
9 71 259
9 72 183
9 73 88
9 74 141
9 75 67
9 76 88
9 77 11
9 78 80
9 79 84
9 80 194
9 81 218
9 82 122
9 83 265
9 84 99
9 85 1
9 86 75
9 87 186
9 88 103
9 89 177
9 90 223
10 11 82
10 12 146
10 13 205
10 14 187
10 15 98
10 16 167
10 17 74
10 18 118
10 19 213
10 20 169
10 21 201
10 22 237
10 23 171
10 24 105
10 25 238
10 26 157
10 27 170
10 28 82
10 29 6
10 30 21
10 31 177
10 32 137
10 33 166
10 34 154
10 35 78
10 36 174
10 37 204
10 38 169
10 39 197
10 40 202
10 41 223
10 42 209
10 43 47
10 44 56
10 45 241
10 46 154
10 47 248
10 48 170
10 49 127
10 50 248
10 51 92
10 52 261
10 53 246
10 54 105
10 55 225
10 56 41
10 57 233
10 58 207
10 59 4
10 60 108
10 61 173
10 62 215
10 63 49
10 64 66
10 65 244
10 66 71
10 67 208
10 68 258
10 69 165
10 70 154
10 71 162
10 72 125
10 73 133
10 74 189
10 75 11
10 76 158
10 77 96
10 78 205
10 79 113
10 80 13
10 81 96
10 82 268
10 83 136
10 84 185
10 85 199
10 86 32
10 87 133
10 88 50
10 89 217
10 90 211
11 12 27
11 13 85
11 14 169
11 15 68
11 16 127
11 17 225
11 18 119
11 19 152
11 20 116
11 21 29
11 22 88
11 23 200
11 24 5
11 25 1
11 26 9
11 27 229
11 28 115
11 29 215
11 30 216
11 31 40
11 32 164
11 33 2
11 34 50
11 35 261
11 36 149
11 37 127
11 38 203
11 39 158
11 40 24
11 41 210
11 42 206
11 43 64
11 44 113
11 45 238
11 46 47
11 47 60
11 48 114
11 49 121
11 50 87
11 51 54
11 52 94
11 53 261
11 54 160
11 55 31
11 56 117
11 57 104
11 58 17
11 59 169
11 60 12
11 61 256
11 62 121
11 63 200
11 64 84
11 65 160
11 66 69
11 67 217
11 68 128
11 69 22
11 70 178
11 71 84
11 72 114
11 73 34
11 74 211
11 75 0
11 76 95
11 77 0
11 78 263
11 79 109
11 80 24
11 81 150
11 82 4
11 83 259
11 84 110
11 85 164
11 86 255
11 87 3
11 88 203
11 89 205
11 90 244
12 13 225
12 14 190
12 15 95
12 16 220
12 17 228
12 18 10
12 19 4
12 20 109
12 21 98
12 22 111
12 23 260
12 24 42
12 25 117
12 26 16
12 27 249
12 28 156
12 29 252
12 30 131
12 31 47
12 32 51
12 33 148
12 34 209
12 35 39
12 36 136
12 37 243
12 38 115
12 39 224
12 40 107
12 41 99
12 42 61
12 43 149
12 44 156
12 45 116
12 46 115
12 47 6
12 48 197
12 49 12
12 50 225
12 51 22
12 52 264
12 53 173
12 54 19
12 55 93
12 56 186
12 57 74
12 58 237
12 59 21
12 60 2
12 61 250
12 62 252
12 63 50
12 64 216
12 65 245
12 66 188
12 67 45
12 68 227
12 69 162
12 70 122
12 71 57
12 72 15
12 73 10
12 74 132
12 75 99
12 76 124
12 77 62
12 78 4
12 79 160
12 80 159
12 81 113
12 82 74
12 83 14
12 84 195
12 85 170
12 86 201
12 87 139
12 88 31
12 89 207
12 90 67
13 14 170
13 15 234
13 16 170
13 17 126
13 18 249
13 19 188
13 20 205
13 21 181
13 22 205
13 23 205
13 24 124
13 25 139
13 26 116
13 27 192
13 28 118
13 29 229
13 30 13
13 31 64
13 32 148
13 33 161
13 34 41
13 35 230
13 36 149
13 37 149
13 38 162
13 39 261
13 40 53
13 41 226
13 42 157
13 43 203
13 44 14
13 45 204
13 46 127
13 47 13
13 48 105
13 49 116
13 50 177
13 51 139
13 52 23
13 53 137
13 54 250
13 55 205
13 56 149
13 57 144
13 58 123
13 59 34
13 60 207
13 61 219
13 62 239
13 63 18
13 64 224
13 65 0
13 66 144
13 67 185
13 68 211
13 69 74
13 70 201
13 71 113
13 72 234
13 73 220
13 74 7
13 75 145
13 76 133
13 77 47
13 78 159
13 79 123
13 80 80
13 81 134
13 82 191
13 83 12
13 84 86
13 85 122
13 86 228
13 87 118
13 88 83
13 89 143
13 90 143
14 15 248
14 16 26
14 17 260
14 18 90
14 19 84
14 20 189
14 21 216
14 22 220
14 23 87
14 24 225
14 25 103
14 26 36
14 27 108
14 28 27
14 29 17
14 30 88
14 31 35
14 32 27
14 33 78
14 34 33
14 35 160
14 36 265
14 37 196
14 38 59
14 39 223
14 40 169
14 41 140
14 42 64
14 43 230
14 44 27
14 45 267
14 46 67
14 47 30
14 48 101
14 49 252
14 50 189
14 51 39
14 52 136
14 53 33
14 54 29
14 55 100
14 56 3
14 57 15
14 58 203
14 59 176
14 60 161
14 61 137
14 62 184
14 63 211
14 64 83
14 65 213
14 66 100
14 67 187
14 68 110
14 69 252
14 70 0
14 71 97
14 72 140
14 73 196
14 74 153
14 75 128
14 76 44
14 77 17
14 78 9
14 79 248
14 80 93
14 81 92
14 82 216
14 83 124
14 84 149
14 85 32
14 86 212
14 87 97
14 88 94
14 89 10
14 90 2
15 16 189
15 17 203
15 18 46
15 19 233
15 20 159
15 21 224
15 22 122
15 23 67
15 24 77
15 25 66
15 26 150
15 27 243
15 28 212
15 29 172
15 30 19
15 31 65
15 32 171
15 33 67
15 34 117
15 35 177
15 36 254
15 37 132
15 38 202
15 39 68
15 40 141
15 41 127
15 42 63
15 43 122
15 44 155
15 45 86
15 46 241
15 47 138
15 48 266
15 49 89
15 50 150
15 51 34
15 52 219
15 53 8
15 54 119
15 55 23
15 56 183
15 57 199
15 58 53
15 59 222
15 60 85
15 61 172
15 62 219
15 63 237
15 64 25
15 65 267
15 66 255
15 67 3
15 68 135
15 69 105
15 70 10
15 71 242
15 72 33
15 73 164
15 74 95
15 75 2
15 76 187
15 77 233
15 78 55
15 79 191
15 80 239
15 81 219
15 82 182
15 83 72
15 84 208
15 85 49
15 86 73
15 87 89
15 88 95
15 89 42
15 90 67
16 17 13
16 18 219
16 19 106
16 20 150
16 21 91
16 22 151
16 23 140
16 24 214
16 25 120
16 26 250
16 27 95
16 28 128
16 29 16
16 30 107
16 31 135
16 32 110
16 33 78
16 34 159
16 35 259
16 36 105
16 37 137
16 38 121
16 39 190
16 40 264
16 41 250
16 42 142
16 43 168
16 44 62
16 45 148
16 46 155
16 47 213
16 48 41
16 49 122
16 50 216
16 51 100
16 52 242
16 53 147
16 54 205
16 55 103
16 56 241
16 57 215
16 58 158
16 59 104
16 60 119
16 61 11
16 62 47
16 63 261
16 64 88
16 65 38
16 66 121
16 67 64
16 68 124
16 69 132
16 70 4
16 71 75
16 72 43
16 73 223
16 74 33
16 75 194
16 76 137
16 77 214
16 78 131
16 79 92
16 80 73
16 81 114
16 82 125
16 83 197
16 84 66
16 85 221
16 86 227
16 87 57
16 88 124
16 89 234
16 90 205
17 18 105
17 19 58
17 20 251
17 21 29
17 22 41
17 23 6
17 24 207
17 25 61
17 26 110
17 27 150
17 28 6
17 29 193
17 30 154
17 31 159
17 32 253
17 33 106
17 34 233
17 35 47
17 36 17
17 37 189
17 38 154
17 39 94
17 40 65
17 41 55
17 42 75
17 43 122
17 44 267
17 45 147
17 46 161
17 47 22
17 48 14
17 49 146
17 50 102
17 51 47
17 52 27
17 53 33
17 54 133
17 55 61
17 56 42
17 57 252
17 58 104
17 59 190
17 60 1
17 61 247
17 62 232
17 63 110
17 64 62
17 65 189
17 66 53
17 67 23
17 68 156
17 69 214
17 70 267
17 71 73
17 72 21
17 73 159
17 74 130
17 75 185
17 76 137
17 77 43
17 78 126
17 79 151
17 80 178
17 81 196
17 82 150
17 83 69
17 84 191
17 85 23
17 86 213
17 87 21
17 88 41
17 89 68
17 90 33
18 19 91
18 20 158
18 21 72
18 22 128
18 23 109
18 24 54
18 25 92
18 26 32
18 27 229
18 28 257
18 29 205
18 30 80
18 31 213
18 32 117
18 33 57
18 34 169
18 35 175
18 36 121
18 37 123
18 38 138
18 39 88
18 40 176
18 41 179
18 42 155
18 43 78
18 44 119
18 45 136
18 46 1
18 47 59
18 48 177
18 49 132
18 50 22
18 51 259
18 52 171
18 53 85
18 54 216
18 55 194
18 56 121
18 57 232
18 58 158
18 59 137
18 60 42
18 61 13
18 62 60
18 63 57
18 64 245
18 65 116
18 66 262
18 67 185
18 68 132
18 69 135
18 70 226
18 71 59
18 72 89
18 73 64
18 74 257
18 75 238
18 76 124
18 77 191
18 78 51
18 79 192
18 80 263
18 81 224
18 82 109
18 83 126
18 84 13
18 85 47
18 86 116
18 87 257
18 88 228
18 89 259
18 90 144
19 20 63
19 21 165
19 22 206
19 23 214
19 24 0
19 25 261
19 26 59
19 27 232
19 28 228
19 29 200
19 30 94
19 31 105
19 32 3
19 33 29
19 34 98
19 35 45
19 36 252
19 37 121
19 38 7
19 39 22
19 40 134
19 41 51
19 42 88
19 43 54
19 44 249
19 45 186
19 46 25
19 47 144
19 48 135
19 49 6
19 50 134
19 51 135
19 52 45
19 53 142
19 54 21
19 55 145
19 56 188
19 57 129
19 58 45
19 59 252
19 60 205
19 61 142
19 62 99
19 63 24
19 64 162
19 65 245
19 66 78
19 67 47
19 68 30
19 69 77
19 70 102
19 71 189
19 72 210
19 73 238
19 74 48
19 75 63
19 76 206
19 77 220
19 78 42
19 79 141
19 80 4
19 81 263
19 82 207
19 83 70
19 84 9
19 85 25
19 86 211
19 87 207
19 88 258
19 89 120
19 90 158
20 21 268
20 22 225
20 23 178
20 24 81
20 25 77
20 26 255
20 27 135
20 28 186
20 29 189
20 30 7
20 31 59
20 32 147
20 33 249
20 34 205
20 35 71
20 36 216
20 37 83
20 38 216
20 39 233
20 40 235
20 41 76
20 42 90
20 43 117
20 44 250
20 45 254
20 46 89
20 47 95
20 48 78
20 49 267
20 50 107
20 51 16
20 52 125
20 53 1
20 54 150
20 55 158
20 56 103
20 57 15
20 58 124
20 59 154
20 60 68
20 61 266
20 62 241
20 63 120
20 64 38
20 65 14
20 66 43
20 67 168
20 68 99
20 69 212
20 70 12
20 71 123
20 72 213
20 73 61
20 74 99
20 75 200
20 76 61
20 77 212
20 78 168
20 79 96
20 80 208
20 81 268
20 82 34
20 83 236
20 84 109
20 85 16
20 86 148
20 87 235
20 88 67
20 89 15
20 90 114
21 22 47
21 23 96
21 24 86
21 25 85
21 26 244
21 27 64
21 28 58
21 29 37
21 30 197
21 31 8
21 32 142
21 33 46
21 34 248
21 35 142
21 36 99
21 37 239
21 38 129
21 39 248
21 40 14
21 41 140
21 42 46
21 43 60
21 44 73
21 45 184
21 46 8
21 47 209
21 48 92
21 49 96
21 50 112
21 51 258
21 52 240
21 53 183
21 54 47
21 55 27
21 56 224
21 57 234
21 58 255
21 59 228
21 60 110
21 61 99
21 62 8
21 63 53
21 64 254
21 65 6
21 66 117
21 67 135
21 68 39
21 69 68
21 70 107
21 71 53
21 72 76
21 73 40
21 74 219
21 75 99
21 76 142
21 77 252
21 78 186
21 79 51
21 80 146
21 81 45
21 82 19
21 83 226
21 84 253
21 85 33
21 86 248
21 87 67
21 88 255
21 89 267
21 90 210
22 23 190
22 24 14
22 25 122
22 26 17
22 27 113
22 28 209
22 29 40
22 30 149
22 31 86
22 32 204
22 33 260
22 34 36
22 35 187
22 36 131
22 37 118
22 38 127
22 39 31
22 40 113
22 41 136
22 42 244
22 43 103
22 44 30
22 45 82
22 46 128
22 47 254
22 48 163
22 49 224
22 50 173
22 51 65
22 52 9
22 53 184
22 54 143
22 55 60
22 56 217
22 57 60
22 58 126
22 59 82
22 60 155
22 61 84
22 62 79
22 63 178
22 64 250
22 65 166
22 66 180
22 67 212
22 68 241
22 69 178
22 70 67
22 71 226
22 72 188
22 73 86
22 74 151
22 75 231
22 76 13
22 77 221
22 78 127
22 79 155
22 80 254
22 81 261
22 82 259
22 83 192
22 84 95
22 85 186
22 86 217
22 87 154
22 88 145
22 89 198
22 90 100
23 24 12
23 25 249
23 26 259
23 27 26
23 28 135
23 29 191
23 30 143
23 31 101
23 32 164
23 33 173
23 34 171
23 35 265
23 36 186
23 37 255
23 38 40
23 39 139
23 40 165
23 41 157
23 42 28
23 43 200
23 44 87
23 45 215
23 46 125
23 47 214
23 48 208
23 49 89
23 50 85
23 51 160
23 52 0
23 53 122
23 54 69
23 55 253
23 56 119
23 57 100
23 58 37
23 59 248
23 60 203
23 61 199
23 62 61
23 63 20
23 64 116
23 65 175
23 66 166
23 67 90
23 68 228
23 69 197
23 70 151
23 71 148
23 72 34
23 73 148
23 74 64
23 75 5
23 76 42
23 77 119
23 78 139
23 79 257
23 80 161
23 81 177
23 82 9
23 83 157
23 84 173
23 85 56
23 86 48
23 87 134
23 88 212
23 89 189
23 90 45
24 25 258
24 26 30
24 27 172
24 28 71
24 29 162
24 30 55
24 31 97
24 32 213
24 33 54
24 34 188
24 35 236
24 36 14
24 37 150
24 38 249
24 39 159
24 40 152
24 41 82
24 42 160
24 43 187
24 44 200
24 45 210
24 46 191
24 47 256
24 48 223
24 49 258
24 50 169
24 51 82
24 52 91
24 53 35
24 54 106
24 55 80
24 56 259
24 57 43
24 58 215
24 59 194
24 60 138
24 61 42
24 62 140
24 63 3
24 64 239
24 65 47
24 66 237
24 67 96
24 68 86
24 69 33
24 70 177
24 71 56
24 72 240
24 73 81
24 74 268
24 75 253
24 76 259
24 77 154
24 78 245
24 79 262
24 80 125
24 81 222
24 82 91
24 83 189
24 84 175
24 85 105
24 86 32
24 87 230
24 88 257
24 89 72
24 90 22
25 26 30
25 27 246
25 28 236
25 29 256
25 30 166
25 31 30
25 32 233
25 33 224
25 34 108
25 35 234
25 36 97
25 37 231
25 38 108
25 39 58
25 40 179
25 41 166
25 42 245
25 43 156
25 44 217
25 45 269
25 46 218
25 47 230
25 48 138
25 49 149
25 50 168
25 51 95
25 52 95
25 53 202
25 54 80
25 55 109
25 56 69
25 57 196
25 58 72
25 59 206
25 60 94
25 61 112
25 62 155
25 63 59
25 64 139
25 65 145
25 66 181
25 67 166
25 68 3
25 69 221
25 70 122
25 71 43
25 72 49
25 73 52
25 74 123
25 75 69
25 76 19
25 77 146
25 78 205
25 79 41
25 80 102
25 81 149
25 82 28
25 83 0
25 84 118
25 85 238
25 86 120
25 87 96
25 88 147
25 89 226
25 90 124
26 27 244
26 28 179
26 29 105
26 30 245
26 31 216
26 32 184
26 33 40
26 34 110
26 35 13
26 36 262
26 37 113
26 38 160
26 39 57
26 40 88
26 41 30
26 42 193
26 43 72
26 44 198
26 45 241
26 46 124
26 47 169
26 48 243
26 49 130
26 50 0
26 51 207
26 52 184
26 53 49
26 54 86
26 55 257
26 56 12
26 57 201
26 58 125
26 59 222
26 60 7
26 61 10
26 62 153
26 63 249
26 64 110
26 65 64
26 66 222
26 67 243
26 68 86
26 69 197
26 70 127
26 71 44
26 72 78
26 73 138
26 74 121
26 75 102
26 76 80
26 77 90
26 78 98
26 79 9
26 80 94
26 81 124
26 82 197
26 83 257
26 84 170
26 85 33
26 86 111
26 87 86
26 88 125
26 89 248
26 90 136
27 28 52
27 29 205
27 30 46
27 31 226
27 32 139
27 33 73
27 34 239
27 35 37
27 36 65
27 37 141
27 38 175
27 39 92
27 40 115
27 41 256
27 42 200
27 43 186
27 44 175
27 45 110
27 46 109
27 47 170
27 48 243
27 49 213
27 50 42
27 51 226
27 52 265
27 53 89
27 54 123
27 55 114
27 56 12
27 57 145
27 58 163
27 59 150
27 60 2
27 61 45
27 62 66
27 63 163
27 64 245
27 65 39
27 66 50
27 67 58
27 68 233
27 69 4
27 70 105
27 71 128
27 72 107
27 73 133
27 74 84
27 75 89
27 76 102
27 77 63
27 78 159
27 79 113
27 80 71
27 81 239
27 82 112
27 83 81
27 84 225
27 85 144
27 86 32
27 87 244
27 88 164
27 89 221
27 90 151
28 29 176
28 30 100
28 31 79
28 32 133
28 33 118
28 34 16
28 35 70
28 36 239
28 37 45
28 38 168
28 39 69
28 40 172
28 41 235
28 42 91
28 43 61
28 44 6
28 45 56
28 46 50
28 47 113
28 48 225
28 49 27
28 50 138
28 51 185
28 52 97
28 53 18
28 54 149
28 55 266
28 56 184
28 57 217
28 58 26
28 59 2
28 60 246
28 61 160
28 62 141
28 63 181
28 64 88
28 65 195
28 66 110
28 67 218
28 68 82
28 69 101
28 70 130
28 71 21
28 72 180
28 73 227
28 74 269
28 75 259
28 76 66
28 77 243
28 78 229
28 79 93
28 80 229
28 81 85
28 82 156
28 83 65
28 84 6
28 85 94
28 86 124
28 87 142
28 88 156
28 89 122
28 90 48
29 30 1
29 31 41
29 32 168
29 33 259
29 34 191
29 35 224
29 36 224
29 37 79
29 38 217
29 39 232
29 40 43
29 41 189
29 42 201
29 43 260
29 44 190
29 45 52
29 46 105
29 47 38
29 48 3
29 49 199
29 50 108
29 51 33
29 52 110
29 53 177
29 54 54
29 55 229
29 56 3
29 57 215
29 58 209
29 59 175
29 60 28
29 61 122
29 62 88
29 63 113
29 64 39
29 65 238
29 66 215
29 67 44
29 68 213
29 69 268
29 70 160
29 71 259
29 72 192
29 73 49
29 74 224
29 75 72
29 76 249
29 77 158
29 78 241
29 79 254
29 80 98
29 81 82
29 82 61
29 83 266
29 84 189
29 85 82
29 86 96
29 87 129
29 88 137
29 89 171
29 90 142
30 31 233
30 32 175
30 33 221
30 34 24
30 35 9
30 36 102
30 37 245
30 38 158
30 39 245
30 40 77
30 41 124
30 42 71
30 43 111
30 44 21
30 45 16
30 46 239
30 47 47
30 48 118
30 49 50
30 50 201
30 51 163
30 52 255
30 53 190
30 54 53
30 55 210
30 56 19
30 57 11
30 58 97
30 59 85
30 60 41
30 61 120
30 62 21
30 63 12
30 64 165
30 65 264
30 66 9
30 67 184
30 68 208
30 69 118
30 70 76
30 71 83
30 72 39
30 73 46
30 74 14
30 75 51
30 76 136
30 77 52
30 78 68
30 79 33
30 80 249
30 81 172
30 82 33
30 83 172
30 84 75
30 85 192
30 86 75
30 87 209
30 88 228
30 89 199
30 90 206
31 32 198
31 33 79
31 34 118
31 35 59
31 36 204
31 37 39
31 38 231
31 39 229
31 40 31
31 41 15
31 42 119
31 43 266
31 44 190
31 45 109
31 46 156
31 47 201
31 48 164
31 49 268
31 50 226
31 51 244
31 52 175
31 53 41
31 54 119
31 55 152
31 56 232
31 57 113
31 58 243
31 59 258
31 60 55
31 61 256
31 62 191
31 63 163
31 64 183
31 65 56
31 66 251
31 67 175
31 68 263
31 69 28
31 70 102
31 71 181
31 72 239
31 73 162
31 74 71
31 75 185
31 76 267
31 77 52
31 78 138
31 79 88
31 80 231
31 81 128
31 82 182
31 83 60
31 84 179
31 85 90
31 86 153
31 87 36
31 88 91
31 89 160
31 90 170
32 33 181
32 34 49
32 35 232
32 36 9
32 37 66
32 38 149
32 39 204
32 40 247
32 41 138
32 42 134
32 43 6
32 44 92
32 45 96
32 46 95
32 47 88
32 48 264
32 49 218
32 50 18
32 51 148
32 52 162
32 53 74
32 54 229
32 55 178
32 56 171
32 57 227
32 58 220
32 59 146
32 60 52
32 61 213
32 62 87
32 63 145
32 64 101
32 65 264
32 66 256
32 67 130
32 68 9
32 69 118
32 70 203
32 71 97
32 72 199
32 73 263
32 74 194
32 75 207
32 76 25
32 77 148
32 78 255
32 79 1
32 80 8
32 81 181
32 82 20
32 83 265
32 84 70
32 85 177
32 86 76
32 87 235
32 88 57
32 89 255
32 90 245
33 34 232
33 35 228
33 36 61
33 37 36
33 38 142
33 39 35
33 40 158
33 41 196
33 42 84
33 43 169
33 44 247
33 45 189
33 46 82
33 47 167
33 48 131
33 49 65
33 50 30
33 51 123
33 52 200
33 53 96
33 54 59
33 55 73
33 56 161
33 57 235
33 58 20
33 59 248
33 60 158
33 61 118
33 62 64
33 63 229
33 64 96
33 65 139
33 66 56
33 67 239
33 68 246
33 69 109
33 70 225
33 71 89
33 72 14
33 73 122
33 74 244
33 75 80
33 76 246
33 77 252
33 78 192
33 79 84
33 80 165
33 81 187
33 82 38
33 83 50
33 84 168
33 85 151
33 86 48
33 87 12
33 88 96
33 89 140
33 90 10
34 35 4
34 36 198
34 37 147
34 38 188
34 39 66
34 40 180
34 41 205
34 42 212
34 43 11
34 44 190
34 45 246
34 46 168
34 47 255
34 48 80
34 49 106
34 50 230
34 51 188
34 52 135
34 53 18
34 54 237
34 55 160
34 56 93
34 57 164
34 58 244
34 59 150
34 60 121
34 61 39
34 62 175
34 63 16
34 64 128
34 65 100
34 66 149
34 67 142
34 68 186
34 69 208
34 70 36
34 71 191
34 72 118
34 73 46
34 74 8
34 75 120
34 76 150
34 77 86
34 78 106
34 79 14
34 80 54
34 81 213
34 82 21
34 83 238
34 84 235
34 85 239
34 86 112
34 87 114
34 88 14
34 89 65
34 90 90
35 36 62
35 37 115
35 38 260
35 39 241
35 40 169
35 41 196
35 42 212
35 43 52
35 44 63
35 45 73
35 46 52
35 47 18
35 48 4
35 49 234
35 50 256
35 51 32
35 52 99
35 53 109
35 54 182
35 55 31
35 56 88
35 57 210
35 58 169
35 59 130
35 60 209
35 61 137
35 62 59
35 63 182
35 64 21
35 65 0
35 66 21
35 67 87
35 68 127
35 69 182
35 70 135
35 71 73
35 72 86
35 73 147
35 74 110
35 75 191
35 76 35
35 77 31
35 78 164
35 79 65
35 80 28
35 81 244
35 82 103
35 83 172
35 84 206
35 85 36
35 86 30
35 87 151
35 88 71
35 89 105
35 90 20
36 37 63
36 38 182
36 39 218
36 40 39
36 41 173
36 42 233
36 43 199
36 44 111
36 45 0
36 46 109
36 47 13
36 48 122
36 49 25
36 50 71
36 51 160
36 52 100
36 53 8
36 54 269
36 55 104
36 56 255
36 57 128
36 58 107
36 59 143
36 60 88
36 61 83
36 62 255
36 63 12
36 64 215
36 65 256
36 66 197
36 67 258
36 68 184
36 69 94
36 70 123
36 71 262
36 72 263
36 73 64
36 74 217
36 75 72
36 76 192
36 77 19
36 78 245
36 79 92
36 80 175
36 81 137
36 82 40
36 83 142
36 84 37
36 85 89
36 86 23
36 87 223
36 88 37
36 89 215
36 90 26
37 38 53
37 39 106
37 40 134
37 41 206
37 42 176
37 43 106
37 44 221
37 45 214
37 46 23
37 47 56
37 48 187
37 49 149
37 50 36
37 51 75
37 52 226
37 53 233
37 54 206
37 55 164
37 56 222
37 57 163
37 58 91
37 59 83
37 60 3
37 61 116
37 62 138
37 63 225
37 64 227
37 65 78
37 66 237
37 67 105
37 68 152
37 69 43
37 70 260
37 71 136
37 72 232
37 73 68
37 74 266
37 75 51
37 76 155
37 77 207
37 78 116
37 79 70
37 80 85
37 81 21
37 82 159
37 83 196
37 84 64
37 85 17
37 86 145
37 87 241
37 88 6
37 89 7
37 90 240
38 39 245
38 40 120
38 41 123
38 42 12
38 43 179
38 44 5
38 45 179
38 46 200
38 47 179
38 48 197
38 49 46
38 50 181
38 51 0
38 52 133
38 53 118
38 54 182
38 55 230
38 56 18
38 57 204
38 58 20
38 59 173
38 60 199
38 61 42
38 62 257
38 63 228
38 64 250
38 65 49
38 66 8
38 67 20
38 68 2
38 69 259
38 70 88
38 71 76
38 72 50
38 73 200
38 74 107
38 75 46
38 76 2
38 77 116
38 78 262
38 79 148
38 80 220
38 81 81
38 82 61
38 83 61
38 84 118
38 85 246
38 86 231
38 87 250
38 88 192
38 89 219
38 90 49
39 40 192
39 41 123
39 42 228
39 43 56
39 44 63
39 45 189
39 46 107
39 47 199
39 48 54
39 49 130
39 50 46
39 51 233
39 52 231
39 53 195
39 54 222
39 55 268
39 56 42
39 57 213
39 58 6
39 59 111
39 60 74
39 61 144
39 62 171
39 63 5
39 64 173
39 65 136
39 66 11
39 67 164
39 68 109
39 69 240
39 70 49
39 71 136
39 72 258
39 73 80
39 74 178
39 75 41
39 76 98
39 77 261
39 78 102
39 79 188
39 80 94
39 81 144
39 82 230
39 83 223
39 84 62
39 85 36
39 86 232
39 87 117
39 88 83
39 89 205
39 90 10
40 41 60
40 42 124
40 43 210
40 44 38
40 45 140
40 46 248
40 47 207
40 48 265
40 49 181
40 50 189
40 51 60
40 52 166
40 53 11
40 54 49
40 55 41
40 56 182
40 57 119
40 58 146
40 59 138
40 60 216
40 61 39
40 62 132
40 63 254
40 64 207
40 65 182
40 66 194
40 67 242
40 68 109
40 69 62
40 70 11
40 71 176
40 72 29
40 73 223
40 74 155
40 75 219
40 76 224
40 77 202
40 78 128
40 79 164
40 80 263
40 81 126
40 82 190
40 83 5
40 84 121
40 85 200
40 86 68
40 87 172
40 88 1
40 89 170
40 90 44
41 42 216
41 43 11
41 44 155
41 45 170
41 46 41
41 47 146
41 48 93
41 49 184
41 50 147
41 51 107
41 52 173
41 53 254
41 54 130
41 55 68
41 56 267
41 57 179
41 58 171
41 59 137
41 60 208
41 61 228
41 62 158
41 63 27
41 64 125
41 65 144
41 66 114
41 67 204
41 68 223
41 69 203
41 70 128
41 71 259
41 72 176
41 73 136
41 74 233
41 75 34
41 76 168
41 77 110
41 78 141
41 79 174
41 80 65
41 81 145
41 82 257
41 83 224
41 84 71
41 85 45
41 86 242
41 87 209
41 88 169
41 89 88
41 90 85
42 43 12
42 44 207
42 45 93
42 46 203
42 47 216
42 48 77
42 49 246
42 50 226
42 51 81
42 52 212
42 53 71
42 54 35
42 55 50
42 56 79
42 57 61
42 58 30
42 59 67
42 60 71
42 61 240
42 62 179
42 63 127
42 64 22
42 65 55
42 66 248
42 67 228
42 68 41
42 69 58
42 70 41
42 71 129
42 72 251
42 73 216
42 74 86
42 75 110
42 76 151
42 77 159
42 78 74
42 79 184
42 80 190
42 81 213
42 82 5
42 83 139
42 84 244
42 85 186
42 86 231
42 87 249
42 88 45
42 89 220
42 90 223
43 44 243
43 45 158
43 46 187
43 47 43
43 48 61
43 49 33
43 50 128
43 51 64
43 52 242
43 53 90
43 54 60
43 55 265
43 56 195
43 57 204
43 58 29
43 59 146
43 60 108
43 61 214
43 62 12
43 63 70
43 64 91
43 65 172
43 66 163
43 67 12
43 68 189
43 69 267
43 70 84
43 71 32
43 72 14
43 73 84
43 74 98
43 75 256
43 76 95
43 77 256
43 78 169
43 79 91
43 80 238
43 81 181
43 82 80
43 83 3
43 84 158
43 85 151
43 86 96
43 87 28
43 88 19
43 89 164
43 90 123
44 45 29
44 46 0
44 47 216
44 48 59
44 49 100
44 50 20
44 51 49
44 52 268
44 53 212
44 54 69
44 55 237
44 56 97
44 57 52
44 58 120
44 59 5
44 60 239
44 61 61
44 62 6
44 63 223
44 64 236
44 65 124
44 66 234
44 67 139
44 68 268
44 69 240
44 70 263
44 71 67
44 72 152
44 73 156
44 74 103
44 75 194
44 76 78
44 77 187
44 78 57
44 79 58
44 80 112
44 81 223
44 82 4
44 83 30
44 84 195
44 85 212
44 86 26
44 87 169
44 88 137
44 89 195
44 90 245
45 46 53
45 47 0
45 48 253
45 49 167
45 50 89
45 51 202
45 52 132
45 53 116
45 54 160
45 55 39
45 56 15
45 57 230
45 58 77
45 59 94
45 60 126
45 61 228
45 62 119
45 63 137
45 64 165
45 65 172
45 66 268
45 67 215
45 68 28
45 69 240
45 70 258
45 71 169
45 72 230
45 73 242
45 74 261
45 75 16
45 76 25
45 77 248
45 78 151
45 79 254
45 80 249
45 81 12
45 82 197
45 83 213
45 84 156
45 85 209
45 86 78
45 87 7
45 88 54
45 89 198
45 90 235
46 47 29
46 48 263
46 49 84
46 50 186
46 51 39
46 52 154
46 53 69
46 54 65
46 55 238
46 56 244
46 57 43
46 58 177
46 59 245
46 60 60
46 61 110
46 62 142
46 63 41
46 64 47
46 65 105
46 66 24
46 67 72
46 68 124
46 69 218
46 70 177
46 71 156
46 72 260
46 73 181
46 74 105
46 75 105
46 76 75
46 77 223
46 78 204
46 79 78
46 80 56
46 81 63
46 82 4
46 83 205
46 84 249
46 85 103
46 86 88
46 87 210
46 88 44
46 89 198
46 90 172
47 48 173
47 49 45
47 50 237
47 51 231
47 52 259
47 53 262
47 54 50
47 55 110
47 56 64
47 57 149
47 58 16
47 59 208
47 60 34
47 61 48
47 62 264
47 63 115
47 64 111
47 65 69
47 66 16
47 67 63
47 68 99
47 69 195
47 70 64
47 71 246
47 72 75
47 73 39
47 74 154
47 75 172
47 76 83
47 77 167
47 78 119
47 79 212
47 80 170
47 81 10
47 82 55
47 83 75
47 84 180
47 85 238
47 86 30
47 87 258
47 88 40
47 89 31
47 90 264
48 49 76
48 50 188
48 51 64
48 52 166
48 53 9
48 54 65
48 55 263
48 56 115
48 57 146
48 58 147
48 59 135
48 60 265
48 61 224
48 62 98
48 63 116
48 64 54
48 65 92
48 66 185
48 67 32
48 68 183
48 69 219
48 70 41
48 71 170
48 72 155
48 73 184
48 74 155
48 75 30
48 76 1
48 77 123
48 78 71
48 79 182
48 80 34
48 81 2
48 82 227
48 83 90
48 84 103
48 85 66
48 86 219
48 87 241
48 88 236
48 89 155
48 90 171
49 50 107
49 51 33
49 52 213
49 53 57
49 54 226
49 55 9
49 56 167
49 57 43
49 58 95
49 59 186
49 60 217
49 61 233
49 62 248
49 63 52
49 64 0
49 65 11
49 66 141
49 67 46
49 68 96
49 69 234
49 70 87
49 71 86
49 72 135
49 73 39
49 74 234
49 75 235
49 76 83
49 77 217
49 78 262
49 79 216
49 80 156
49 81 216
49 82 127
49 83 40
49 84 16
49 85 180
49 86 4
49 87 19
49 88 203
49 89 101
49 90 215
50 51 195
50 52 226
50 53 157
50 54 10
50 55 112
50 56 252
50 57 232
50 58 181
50 59 103
50 60 64
50 61 122
50 62 263
50 63 182
50 64 174
50 65 198
50 66 20
50 67 177
50 68 201
50 69 110
50 70 117
50 71 98
50 72 31
50 73 261
50 74 58
50 75 52
50 76 64
50 77 67
50 78 25
50 79 124
50 80 28
50 81 1
50 82 100
50 83 160
50 84 125
50 85 17
50 86 170
50 87 94
50 88 178
50 89 143
50 90 209
51 52 46
51 53 198
51 54 11
51 55 117
51 56 260
51 57 241
51 58 232
51 59 241
51 60 268
51 61 124
51 62 161
51 63 134
51 64 253
51 65 237
51 66 112
51 67 246
51 68 221
51 69 108
51 70 252
51 71 146
51 72 200
51 73 108
51 74 122
51 75 256
51 76 170
51 77 249
51 78 158
51 79 109
51 80 102
51 81 268
51 82 163
51 83 197
51 84 94
51 85 225
51 86 133
51 87 20
51 88 93
51 89 83
51 90 259
52 53 146
52 54 179
52 55 83
52 56 59
52 57 95
52 58 16
52 59 35
52 60 187
52 61 56
52 62 119
52 63 257
52 64 175
52 65 43
52 66 92
52 67 140
52 68 109
52 69 266
52 70 158
52 71 39
52 72 188
52 73 141
52 74 54
52 75 91
52 76 139
52 77 78
52 78 15
52 79 245
52 80 46
52 81 47
52 82 116
52 83 231
52 84 209
52 85 247
52 86 53
52 87 51
52 88 193
52 89 210
52 90 35
53 54 213
53 55 85
53 56 175
53 57 10
53 58 35
53 59 89
53 60 263
53 61 91
53 62 160
53 63 158
53 64 113
53 65 110
53 66 236
53 67 119
53 68 266
53 69 147
53 70 70
53 71 21
53 72 66
53 73 41
53 74 223
53 75 87
53 76 265
53 77 13
53 78 18
53 79 241
53 80 263
53 81 224
53 82 216
53 83 15
53 84 6
53 85 25
53 86 5
53 87 62
53 88 122
53 89 125
53 90 164
54 55 230
54 56 263
54 57 40
54 58 128
54 59 12
54 60 174
54 61 178
54 62 164
54 63 180
54 64 195
54 65 57
54 66 4
54 67 102
54 68 72
54 69 144
54 70 138
54 71 34
54 72 211
54 73 246
54 74 42
54 75 210
54 76 34
54 77 182
54 78 92
54 79 111
54 80 120
54 81 46
54 82 230
54 83 254
54 84 96
54 85 23
54 86 164
54 87 12
54 88 268
54 89 76
54 90 245
55 56 45
55 57 230
55 58 130
55 59 2
55 60 126
55 61 69
55 62 62
55 63 121
55 64 161
55 65 163
55 66 208
55 67 86
55 68 1
55 69 211
55 70 134
55 71 197
55 72 161
55 73 90
55 74 240
55 75 206
55 76 95
55 77 196
55 78 207
55 79 44
55 80 188
55 81 62
55 82 177
55 83 16
55 84 222
55 85 213
55 86 25
55 87 52
55 88 188
55 89 245
55 90 252
56 57 118
56 58 166
56 59 173
56 60 164
56 61 2
56 62 113
56 63 71
56 64 149
56 65 204
56 66 180
56 67 134
56 68 53
56 69 105
56 70 194
56 71 132
56 72 255
56 73 104
56 74 227
56 75 98
56 76 198
56 77 22
56 78 222
56 79 57
56 80 248
56 81 155
56 82 157
56 83 25
56 84 86
56 85 215
56 86 252
56 87 147
56 88 72
56 89 260
56 90 218
57 58 44
57 59 86
57 60 1
57 61 211
57 62 174
57 63 64
57 64 200
57 65 66
57 66 122
57 67 223
57 68 18
57 69 78
57 70 36
57 71 176
57 72 44
57 73 217
57 74 9
57 75 237
57 76 144
57 77 145
57 78 141
57 79 98
57 80 91
57 81 182
57 82 158
57 83 262
57 84 103
57 85 257
57 86 141
57 87 216
57 88 50
57 89 259
57 90 130
58 59 226
58 60 128
58 61 45
58 62 174
58 63 249
58 64 31
58 65 148
58 66 197
58 67 50
58 68 171
58 69 3
58 70 112
58 71 139
58 72 195
58 73 66
58 74 244
58 75 15
58 76 15
58 77 77
58 78 54
58 79 166
58 80 97
58 81 232
58 82 119
58 83 53
58 84 110
58 85 169
58 86 16
58 87 50
58 88 151
58 89 99
58 90 172
59 60 213
59 61 21
59 62 8
59 63 111
59 64 54
59 65 120
59 66 177
59 67 27
59 68 51
59 69 252
59 70 198
59 71 201
59 72 23
59 73 44
59 74 87
59 75 16
59 76 113
59 77 122
59 78 3
59 79 268
59 80 126
59 81 29
59 82 27
59 83 238
59 84 227
59 85 175
59 86 251
59 87 265
59 88 237
59 89 43
59 90 264
60 61 9
60 62 250
60 63 164
60 64 11
60 65 95
60 66 149
60 67 150
60 68 51
60 69 236
60 70 14
60 71 78
60 72 109
60 73 5
60 74 51
60 75 30
60 76 212
60 77 78
60 78 111
60 79 141
60 80 49
60 81 49
60 82 177
60 83 59
60 84 203
60 85 203
60 86 42
60 87 130
60 88 151
60 89 251
60 90 71
61 62 107
61 63 20
61 64 170
61 65 225
61 66 121
61 67 235
61 68 223
61 69 30
61 70 266
61 71 241
61 72 5
61 73 102
61 74 135
61 75 207
61 76 206
61 77 49
61 78 106
61 79 259
61 80 218
61 81 97
61 82 250
61 83 162
61 84 66
61 85 245
61 86 79
61 87 3
61 88 167
61 89 4
61 90 15
62 63 46
62 64 118
62 65 161
62 66 130
62 67 218
62 68 118
62 69 141
62 70 63
62 71 138
62 72 87
62 73 70
62 74 88
62 75 189
62 76 8
62 77 234
62 78 137
62 79 104
62 80 206
62 81 109
62 82 221
62 83 56
62 84 55
62 85 203
62 86 195
62 87 76
62 88 69
62 89 181
62 90 114
63 64 70
63 65 95
63 66 262
63 67 67
63 68 17
63 69 17
63 70 94
63 71 76
63 72 40
63 73 184
63 74 16
63 75 115
63 76 81
63 77 137
63 78 94
63 79 75
63 80 60
63 81 103
63 82 100
63 83 152
63 84 220
63 85 58
63 86 81
63 87 82
63 88 263
63 89 160
63 90 153
64 65 48
64 66 242
64 67 88
64 68 166
64 69 3
64 70 207
64 71 123
64 72 15
64 73 130
64 74 83
64 75 59
64 76 67
64 77 82
64 78 27
64 79 31
64 80 29
64 81 118
64 82 168
64 83 182
64 84 191
64 85 102
64 86 5
64 87 166
64 88 163
64 89 200
64 90 231
65 66 221
65 67 185
65 68 178
65 69 79
65 70 209
65 71 96
65 72 232
65 73 203
65 74 43
65 75 93
65 76 176
65 77 248
65 78 0
65 79 213
65 80 22
65 81 162
65 82 76
65 83 160
65 84 148
65 85 190
65 86 87
65 87 26
65 88 187
65 89 7
65 90 3
66 67 57
66 68 54
66 69 252
66 70 126
66 71 132
66 72 167
66 73 223
66 74 192
66 75 102
66 76 140
66 77 241
66 78 4
66 79 147
66 80 165
66 81 259
66 82 261
66 83 150
66 84 243
66 85 148
66 86 175
66 87 96
66 88 72
66 89 233
66 90 97
67 68 175
67 69 13
67 70 8
67 71 260
67 72 15
67 73 263
67 74 253
67 75 33
67 76 160
67 77 136
67 78 58
67 79 185
67 80 134
67 81 156
67 82 62
67 83 155
67 84 146
67 85 230
67 86 141
67 87 143
67 88 211
67 89 94
67 90 163
68 69 177
68 70 151
68 71 201
68 72 255
68 73 75
68 74 36
68 75 226
68 76 120
68 77 91
68 78 36
68 79 259
68 80 176
68 81 35
68 82 194
68 83 241
68 84 19
68 85 166
68 86 212
68 87 256
68 88 212
68 89 61
68 90 246
69 70 39
69 71 244
69 72 113
69 73 225
69 74 202
69 75 30
69 76 152
69 77 138
69 78 146
69 79 93
69 80 44
69 81 213
69 82 115
69 83 150
69 84 48
69 85 185
69 86 44
69 87 201
69 88 60
69 89 131
69 90 11
70 71 6
70 72 58
70 73 252
70 74 85
70 75 14
70 76 86
70 77 29
70 78 187
70 79 246
70 80 27
70 81 224
70 82 33
70 83 195
70 84 51
70 85 232
70 86 249
70 87 88
70 88 97
70 89 9
70 90 57
71 72 137
71 73 264
71 74 135
71 75 227
71 76 173
71 77 229
71 78 192
71 79 37
71 80 184
71 81 3
71 82 115
71 83 179
71 84 140
71 85 63
71 86 59
71 87 164
71 88 267
71 89 108
71 90 131
72 73 262
72 74 73
72 75 74
72 76 143
72 77 209
72 78 166
72 79 166
72 80 247
72 81 97
72 82 109
72 83 65
72 84 76
72 85 0
72 86 190
72 87 126
72 88 226
72 89 70
72 90 155
73 74 114
73 75 149
73 76 268
73 77 190
73 78 147
73 79 31
73 80 137
73 81 103
73 82 210
73 83 94
73 84 120
73 85 38
73 86 16
73 87 6
73 88 100
73 89 28
73 90 106
74 75 54
74 76 246
74 77 141
74 78 129
74 79 205
74 80 182
74 81 72
74 82 237
74 83 211
74 84 66
74 85 150
74 86 229
74 87 74
74 88 141
74 89 62
74 90 33
75 76 50
75 77 148
75 78 221
75 79 231
75 80 259
75 81 48
75 82 90
75 83 104
75 84 220
75 85 93
75 86 263
75 87 44
75 88 178
75 89 91
75 90 16
76 77 188
76 78 172
76 79 120
76 80 15
76 81 105
76 82 251
76 83 250
76 84 47
76 85 22
76 86 253
76 87 32
76 88 81
76 89 226
76 90 103
77 78 118
77 79 178
77 80 106
77 81 253
77 82 16
77 83 78
77 84 209
77 85 72
77 86 210
77 87 50
77 88 166
77 89 144
77 90 214
78 79 65
78 80 117
78 81 79
78 82 167
78 83 103
78 84 199
78 85 108
78 86 174
78 87 158
78 88 150
78 89 84
78 90 227
79 80 264
79 81 110
79 82 88
79 83 1
79 84 35
79 85 79
79 86 120
79 87 175
79 88 224
79 89 245
79 90 205
80 81 10
80 82 125
80 83 25
80 84 99
80 85 55
80 86 229
80 87 49
80 88 125
80 89 117
80 90 7
81 82 238
81 83 225
81 84 58
81 85 36
81 86 146
81 87 248
81 88 234
81 89 191
81 90 250
82 83 182
82 84 10
82 85 181
82 86 32
82 87 178
82 88 57
82 89 241
82 90 71
83 84 269
83 85 16
83 86 246
83 87 182
83 88 137
83 89 195
83 90 131
84 85 98
84 86 164
84 87 255
84 88 239
84 89 186
84 90 16
85 86 104
85 87 176
85 88 211
85 89 236
85 90 248
86 87 82
86 88 14
86 89 202
86 90 33
87 88 53
87 89 103
87 90 143
88 89 46
88 90 158
89 90 84
